NAME : portcgen-28-12
COMMENT : portcgen N=28, seed=12
TYPE : TSP
DIMENSION : 28
EDGE_WEIGHT_TYPE : EUC_2D
NODE_COORD_SECTION
1 95096 194210
2 2441 29257
3 -172013 -85378
4 122921 227300
5 -279762 -217022
6 -38504 101192
7 -12804 374783
8 263064 145873
9 147928 200884
10 105419 -9627
11 233061 -14942
12 284563 235633
13 114899 -187591
14 81946 -20300
15 -246992 267305
16 356585 522576
17 -289584 -172796
18 168550 -12688
19 -132891 -302174
20 55353 14082
21 387713 -66279
22 125882 -176372
23 -20904 -8765
24 77008 -1430
25 -84769 222341
26 -156430 -172438
27 -61514 14972
28 219144 314099
